(set-logic QF_S)
(declare-fun var0 () String)
(declare-fun var1 () Int)
(declare-fun var2 () Bool)
(declare-fun var3 () String)
(declare-fun var4 () Int)
(declare-fun var5 () Bool)
(declare-fun var6 () String)
(declare-fun var7 () Int)
(declare-fun var8 () Bool)
(assert (>= (str.len (str.substr var0 var7 var7)) (str.indexof var3 "\\-8!Gfve9k" var1)))
(assert (> var4 var7))
(assert (<= (str.indexof "SBR`1VB[;L" var0 var1) (str.len var6)))
(assert (> (str.indexof (str.substr var0 var7 var7) (str.substr var0 var1 var7) (str.indexof var3 var3 var4)) (str.indexof var0 var6 var1)))
(check-sat)